RT is False
Default write of storage_offers_DA.csv just to have a file (but constraint should be inactive)
Reading model...
...model read.
creating competitive generators file...
...competitive generators recorded.
Loading data...
.. day-ahead data with real-time VRE data read.
Compiling instance...
...instance created.
Creating Offer Mitigation (model will solve as dispatch if TRUE)...
NOTE: storage offers will not be mitigated
...storage offer mitigation file created
Converting model to MPEC...
...converted
NOTE: initial MIP solve with only storage competitive to get feasible solution
Solving...

Welcome to IBM(R) ILOG(R) CPLEX(R) Interactive Optimizer 12.9.0.0
  with Simplex, Mixed Integer & Barrier Optimizers
5725-A06 5725-A29 5724-Y48 5724-Y49 5724-Y54 5724-Y55 5655-Y21
Copyright IBM Corp. 1988, 2019.  All Rights Reserved.

Type 'help' for a list of available commands.
Type 'help' followed by a command name for more
information on commands.

CPLEX> Logfile 'cplex.log' closed.
Logfile 'C:\Users\llavin\Desktop\test826\logs\tmpn0xyqej4.cplex.log' open.
CPLEX> New value for parallel optimization mode: -1
CPLEX> New value for mixed integer optimality gap tolerance: 0.02
CPLEX> New value for integrality tolerance: 1e-12
CPLEX> New value for deterministic time limit in ticks: 65000
CPLEX> Problem 'C:\Users\llavin\Desktop\test826\logs\tmp1rmkv6af.pyomo.lp' read.
Read time = 0.20 sec. (13.64 ticks)
CPLEX> Problem name         : C:\Users\llavin\Desktop\test826\logs\tmp1rmkv6af.pyomo.lp
Objective sense      : Maximize
Variables            :   53815  [Nneg: 1,  Box: 22002,  Free: 4464,
                                 Binary: 27348]
Objective nonzeros   :    8980
Linear constraints   :  123235  [Less: 41356,  Greater: 59114,  Equal: 22765]
  Nonzeros           :  292605
  RHS nonzeros       :   67515

Variables            : Min LB: -5000.000        Max UB: 1000000.       
Objective nonzeros   : Min   : 0.3083333        Max   : 834.3917       
Linear constraints   :
  Nonzeros           : Min   : 0.3083333        Max   : 1000000.       
  RHS nonzeros       : Min   : 0.001000000      Max   : 1000000.       
CPLEX> CPXPARAM_Parallel                                -1
CPXPARAM_DetTimeLimit                            65000
CPXPARAM_MIP_Tolerances_MIPGap                   0.02
CPXPARAM_MIP_Tolerances_Integrality              9.9999999999999998e-13
Tried aggregator 3 times.
MIP Presolve eliminated 88651 rows and 18931 columns.
MIP Presolve added 3399 rows and 0 columns.
MIP Presolve modified 24948 coefficients.
Aggregator did 13018 substitutions.
Reduced MIP has 24965 rows, 21310 columns, and 71405 nonzeros.
Reduced MIP has 8418 binaries, 0 generals, 0 SOSs, and 0 indicators.
Presolve time = 0.28 sec. (172.82 ticks)
Probing fixed 379 vars, tightened 4031 bounds.
Probing time = 0.05 sec. (19.39 ticks)
Tried aggregator 2 times.
MIP Presolve eliminated 862 rows and 765 columns.
MIP Presolve modified 3044 coefficients.
Aggregator did 32 substitutions.
Reduced MIP has 24071 rows, 20513 columns, and 68815 nonzeros.
Reduced MIP has 8036 binaries, 0 generals, 0 SOSs, and 0 indicators.
Presolve time = 0.11 sec. (89.49 ticks)
Probing fixed 0 vars, tightened 395 bounds.
Probing time = 0.14 sec. (23.02 ticks)
Clique table members: 45110.
MIP emphasis: balance optimality and feasibility.
MIP search method: dynamic search.
Parallel mode: opportunistic, using up to 32 threads.
Root relaxation solution time = 0.36 sec. (582.21 ticks)

        Nodes                                         Cuts/
   Node  Left     Objective  IInf  Best Integer    Best Bound    ItCnt     Gap

      0     0     1868.3853    80                   1868.3853     4881         
*     0+    0                         1868.3853     1868.3853             0.00%
      0     0        cutoff           1868.3853     1868.3853     4881    0.00%
Elapsed time = 1.55 sec. (1253.99 ticks, tree = 0.01 MB, solutions = 1)

Root node processing (before b&c):
  Real time             =    1.56 sec. (1255.93 ticks)
Parallel b&c, 32 threads:
  Real time             =    0.00 sec. (0.00 ticks)
  Sync time (average)   =    0.00 sec.
  Wait time (average)   =    0.00 sec.
                          ------------
Total (root+branch&cut) =    1.56 sec. (1255.93 ticks)

Solution pool: 1 solution saved.

MIP - Integer optimal solution:  Objective =  1.8683852936e+03
Solution time =    1.58 sec.  Iterations = 4881  Nodes = 0
Deterministic time = 1256.09 ticks  (796.00 ticks/sec)

CPLEX> Incumbent solution written to file 'C:\Users\llavin\Desktop\test826\logs\tmpf16_yrob.cplex.sol'.
CPLEX> NOTE: no warmstart specified for MIP iteration, default behavior is true
NOTE: resolving with all competitive generators using storage-only solution to warmstart
Solving...

Welcome to IBM(R) ILOG(R) CPLEX(R) Interactive Optimizer 12.9.0.0
  with Simplex, Mixed Integer & Barrier Optimizers
5725-A06 5725-A29 5724-Y48 5724-Y49 5724-Y54 5724-Y55 5655-Y21
Copyright IBM Corp. 1988, 2019.  All Rights Reserved.

Type 'help' for a list of available commands.
Type 'help' followed by a command name for more
information on commands.

CPLEX> Logfile 'cplex.log' closed.
Logfile 'C:\Users\llavin\Desktop\test826\logs\tmpamjjnry4.cplex.log' open.
CPLEX> New value for parallel optimization mode: -1
CPLEX> New value for mixed integer optimality gap tolerance: 0.02
CPLEX> New value for integrality tolerance: 1e-12
CPLEX> New value for deterministic time limit in ticks: 65000
CPLEX> Problem 'C:\Users\llavin\Desktop\test826\logs\tmp2jmlg0ku.pyomo.lp' read.
Read time = 0.19 sec. (13.66 ticks)
CPLEX> MIP start file 'C:\Users\llavin\Desktop\test826\logs\tmp3ouxjmgh.cplex.mst' read.
CPLEX> Problem name         : C:\Users\llavin\Desktop\test826\logs\tmp2jmlg0ku.pyomo.lp
Objective sense      : Maximize
Variables            :   54535  [Nneg: 1,  Box: 22722,  Free: 4464,
                                 Binary: 27348]
Objective nonzeros   :    9676
Linear constraints   :  123235  [Less: 41356,  Greater: 59114,  Equal: 22765]
  Nonzeros           :  292605
  RHS nonzeros       :   67515

Variables            : Min LB: -5000.000        Max UB: 1000000.       
Objective nonzeros   : Min   : 0.3083333        Max   : 787.3167       
Linear constraints   :
  Nonzeros           : Min   : 0.3083333        Max   : 1000000.       
  RHS nonzeros       : Min   : 0.001000000      Max   : 1000000.       
CPLEX> CPXPARAM_Parallel                                -1
CPXPARAM_DetTimeLimit                            65000
CPXPARAM_MIP_Tolerances_MIPGap                   0.02
CPXPARAM_MIP_Tolerances_Integrality              9.9999999999999998e-13
Warning:  No solution found from 1 MIP starts.
Retaining values of one MIP start for possible repair.
Tried aggregator 3 times.
MIP Presolve eliminated 88651 rows and 19651 columns.
MIP Presolve added 3399 rows and 0 columns.
MIP Presolve modified 24948 coefficients.
Aggregator did 13018 substitutions.
Reduced MIP has 24965 rows, 21310 columns, and 71405 nonzeros.
Reduced MIP has 8418 binaries, 0 generals, 0 SOSs, and 0 indicators.
Presolve time = 0.25 sec. (173.19 ticks)
Probing fixed 379 vars, tightened 4031 bounds.
Probing time = 0.06 sec. (19.39 ticks)
Tried aggregator 2 times.
MIP Presolve eliminated 862 rows and 765 columns.
MIP Presolve modified 3044 coefficients.
Aggregator did 32 substitutions.
Reduced MIP has 24071 rows, 20513 columns, and 68815 nonzeros.
Reduced MIP has 8036 binaries, 0 generals, 0 SOSs, and 0 indicators.
Presolve time = 0.09 sec. (89.49 ticks)
Probing fixed 0 vars, tightened 395 bounds.
Probing time = 0.17 sec. (23.02 ticks)
Clique table members: 45110.
MIP emphasis: balance optimality and feasibility.
MIP search method: dynamic search.
Parallel mode: opportunistic, using up to 32 threads.
Root relaxation solution time = 0.44 sec. (662.89 ticks)

        Nodes                                         Cuts/
   Node  Left     Objective  IInf  Best Integer    Best Bound    ItCnt     Gap

      0     0   113033.1913   235                 113033.1913     5874         
      0     0   108011.3373   156                   Cuts: 110     6050         
      0     0   106799.2316   154                    Cuts: 35     6086         
      0     0   106735.9544   156                    Cuts: 20     6098         
      0     0   106735.9544   156                     Cuts: 2     6102         
      0     0   106735.9544   134                     Cuts: 4     6104         
      0     0   106735.9544   133                     Cuts: 2     6108         
*     0+    0                         1868.3853   106735.9544              --- 
*     0+    0                         1868.3855   106735.9544              --- 
Repair heuristic found nothing.
      0    25    45625.1283    73     1868.3855  Impl Bds: 13     6270     --- 
Elapsed time = 6.69 sec. (3956.83 ticks, tree = 0.02 MB, solutions = 2)
    613    70    22903.2973    53     1868.3855    49363.5527     6696     --- 
   1243   697        cutoff           1868.3855    49363.5527    10548     --- 
   1769  1040        cutoff           1868.3855    48544.5226    20382     --- 
   2443  1330     1891.6338    38     1868.3855    41557.6730    26792     --- 
   3109  1425        cutoff           1868.3855    38537.9786    28220     --- 
   3750  1651        cutoff           1868.3855    37398.0429    33261     --- 
   4378  1868        cutoff           1868.3855    34716.9603    51631     --- 
   5175  1849    11573.3498    36     1868.3855    22001.3584    47289     --- 
   6085  1815    infeasible           1868.3855    16400.4508    61879  777.79%

Clique cuts applied:  1
Cover cuts applied:  2
Implied bound cuts applied:  32
Flow cuts applied:  103
Mixed integer rounding cuts applied:  8

Root node processing (before b&c):
  Real time             =    5.28 sec. (3916.83 ticks)
Parallel b&c, 32 threads:
  Real time             =   15.25 sec. (2996.92 ticks)
  Sync time (average)   =    1.06 sec.
  Wait time (average)   =    0.00 sec.
                          ------------
Total (root+branch&cut) =   20.53 sec. (6913.75 ticks)

Solution pool: 2 solutions saved.

MIP - Integer optimal, tolerance (0.02/1e-06):  Objective =  1.8683854606e+03
Current MIP best bound =  1.9053168382e+03 (gap = 36.9314, 1.98%)
Solution time =   20.55 sec.  Iterations = 99729  Nodes = 7822 (24)
Deterministic time = 6913.91 ticks  (336.49 ticks/sec)

CPLEX> Incumbent solution written to file 'C:\Users\llavin\Desktop\test826\logs\tmp29_44jxd.cplex.sol'.
CPLEX> Exporting results... 
